
































































































61 57 22 67 
29 63 58 38 
26 43 4 11 69 
8 65 75 40 
9 71 16 48 
19 17 10 60 
13 0 70 2 3 
74 44 21 15 
41 42 52 23 72 
54 62 6 24 
14 53 20 55 
68 30 49 59 
76 45 1 12 46 
32 64 25 73 
7 5 35 47 34 
66 33 36 27 
39 56 18 28 
51 31 50 37 
